p cnf 3825 933
-3464 3637 0
-3637 3464 0
-3639 -3640 0
-3466 3639 0
-3467 3640 0
-3639 3466 0
-3640 3467 0
-3642 -3643 0
-3469 3642 0
-3470 3643 0
-3642 3469 0
-3643 3470 0
-3645 -3646 0
-3645 -3647 0
-3646 -3647 0
-3472 3645 0
-3473 3646 0
-3474 3647 0
-3645 3472 0
-3646 3473 0
-3647 3474 0
-3649 -3650 0
-3476 3649 0
-3477 3650 0
-3649 3476 0
-3650 3477 0
-3652 -3653 0
-3652 -3654 0
-3653 -3654 0
-3479 3652 0
-3480 3653 0
-3481 3654 0
-3652 3479 0
-3653 3480 0
-3654 3481 0
-3656 -3657 0
-3483 3656 0
-3484 3657 0
-3656 3483 0
-3657 3484 0
-3659 -3660 0
-3659 -3661 0
-3660 -3661 0
-3486 3659 0
-3487 3660 0
-3488 3661 0
-3659 3486 0
-3660 3487 0
-3661 3488 0
-3663 -3664 0
-3490 3663 0
-3491 3664 0
-3663 3490 0
-3664 3491 0
-3666 -3667 0
-3666 -3668 0
-3667 -3668 0
-3493 3666 0
-3494 3667 0
-3495 3668 0
-3666 3493 0
-3667 3494 0
-3668 3495 0
-3670 -3671 0
-3497 3670 0
-3498 3671 0
-3670 3497 0
-3671 3498 0
-3673 -3674 0
-3673 -3675 0
-3674 -3675 0
-3500 3673 0
-3501 3674 0
-3502 3675 0
-3673 3500 0
-3674 3501 0
-3675 3502 0
-3677 -3678 0
-3504 3677 0
-3505 3678 0
-3677 3504 0
-3678 3505 0
-3680 -3681 0
-3680 -3682 0
-3681 -3682 0
-3507 3680 0
-3508 3681 0
-3509 3682 0
-3680 3507 0
-3681 3508 0
-3682 3509 0
-3684 -3685 0
-3511 3684 0
-3512 3685 0
-3684 3511 0
-3685 3512 0
-3687 -3688 0
-3687 -3689 0
-3688 -3689 0
-3514 3687 0
-3515 3688 0
-3516 3689 0
-3687 3514 0
-3688 3515 0
-3689 3516 0
-3691 -3692 0
-3518 3691 0
-3519 3692 0
-3691 3518 0
-3692 3519 0
-3694 -3695 0
-3694 -3696 0
-3695 -3696 0
-3521 3694 0
-3522 3695 0
-3523 3696 0
-3694 3521 0
-3695 3522 0
-3696 3523 0
-3698 -3699 0
-3525 3698 0
-3526 3699 0
-3698 3525 0
-3699 3526 0
-3701 -3702 0
-3701 -3703 0
-3702 -3703 0
-3528 3701 0
-3529 3702 0
-3530 3703 0
-3701 3528 0
-3702 3529 0
-3703 3530 0
-3705 -3706 0
-3532 3705 0
-3533 3706 0
-3705 3532 0
-3706 3533 0
-3708 -3709 0
-3708 -3710 0
-3709 -3710 0
-3535 3708 0
-3536 3709 0
-3537 3710 0
-3708 3535 0
-3709 3536 0
-3710 3537 0
-3712 -3713 0
-3539 3712 0
-3540 3713 0
-3712 3539 0
-3713 3540 0
-3715 -3716 0
-3715 -3717 0
-3716 -3717 0
-3542 3715 0
-3543 3716 0
-3544 3717 0
-3715 3542 0
-3716 3543 0
-3717 3544 0
-3719 -3720 0
-3546 3719 0
-3547 3720 0
-3719 3546 0
-3720 3547 0
-3722 -3723 0
-3722 -3724 0
-3723 -3724 0
-3549 3724 0
-3550 3723 0
-3551 3722 0
-3552 3722 0
-3722 3551 3552 0
-3723 3550 0
-3724 3549 0
-3727 3732 3733 3734 3735 3736 0
-3732 -3733 0
-3732 -3734 0
-3732 -3735 0
-3732 -3736 0
-3733 -3734 0
-3733 -3735 0
-3733 -3736 0
-3734 -3735 0
-3734 -3736 0
-3735 -3736 0
-3727 3737 3738 3739 3740 3741 3742 3743 0
-3737 -3738 0
-3737 -3739 0
-3737 -3740 0
-3737 -3741 0
-3737 -3742 0
-3737 -3743 0
-3738 -3739 0
-3738 -3740 0
-3738 -3741 0
-3738 -3742 0
-3738 -3743 0
-3739 -3740 0
-3739 -3741 0
-3739 -3742 0
-3739 -3743 0
-3740 -3741 0
-3740 -3742 0
-3740 -3743 0
-3741 -3742 0
-3741 -3743 0
-3742 -3743 0
-3727 3744 3745 3746 3747 3748 3749 3750 3751 0
-3744 -3745 0
-3744 -3746 0
-3744 -3747 0
-3744 -3748 0
-3744 -3749 0
-3744 -3750 0
-3744 -3751 0
-3745 -3746 0
-3745 -3747 0
-3745 -3748 0
-3745 -3749 0
-3745 -3750 0
-3745 -3751 0
-3746 -3747 0
-3746 -3748 0
-3746 -3749 0
-3746 -3750 0
-3746 -3751 0
-3747 -3748 0
-3747 -3749 0
-3747 -3750 0
-3747 -3751 0
-3748 -3749 0
-3748 -3750 0
-3748 -3751 0
-3749 -3750 0
-3749 -3751 0
-3750 -3751 0
-3727 3730 0
-3727 3729 0
-3727 3731 0
-3726 -3727 0
-3732 -3729 3431 0
-3735 -3729 3404 0
-3734 -3729 3398 0
-3733 -3729 3422 0
-3736 -3729 3406 0
-3735 -3737 -3730 3597 0
-3735 -3742 -3730 3604 0
-3735 -3738 -3730 3584 0
-3733 -3741 -3730 3585 0
-3735 -3743 -3730 3586 0
-3732 -3738 -3730 3587 0
-3734 -3738 -3730 3600 0
-3736 -3741 -3730 3616 0
-3734 -3743 -3730 3589 0
-3735 -3740 -3730 3591 0
-3734 -3741 -3730 3609 0
-3732 -3741 -3730 3601 0
-3736 -3742 -3730 3592 0
-3736 -3738 -3730 3617 0
-3732 -3742 -3730 3618 0
-3735 -3739 -3730 3610 0
-3733 -3738 -3730 3611 0
-3736 -3737 -3730 3594 0
-3736 -3739 -3730 3612 0
-3733 -3743 -3730 3603 0
-3736 -3743 -3730 3596 0
-3735 -3741 -3730 3614 0
-3732 -3743 -3730 3620 0
-3733 -3739 -3730 3621 0
-3732 -3739 -3730 3622 0
-3744 -3731 3608 0
-3749 -3731 3593 0
-3745 -3731 3619 0
-3750 -3731 3595 0
-3748 -3731 3599 0
-3747 -3731 3615 0
-3746 -3731 3606 0
-3751 -3731 3590 0
-3727 -3732 -3737 0
-3727 -3732 -3740 0
-3727 -3734 -3737 0
-3727 -3734 -3742 0
-3727 -3734 -3739 0
-3727 -3734 -3740 0
-3727 -3733 -3737 0
-3727 -3733 -3742 0
-3727 -3733 -3740 0
-3727 -3736 -3740 0
-3727 -3732 -3744 0
-3727 -3732 -3750 0
-3727 -3732 -3747 0
-3727 -3734 -3746 0
-3727 -3734 -3744 0
-3727 -3734 -3749 0
-3727 -3734 -3750 0
-3727 -3734 -3747 0
-3727 -3733 -3744 0
-3727 -3733 -3749 0
-3727 -3733 -3750 0
-3727 -3733 -3747 0
-3727 -3736 -3750 0
-3727 -3736 -3747 0
-3727 -3735 -3750 0
-3580 3727 0
-3579 3726 0
-3726 3579 0
-3727 3580 0
-3752 3756 0
-3754 3756 0
-3753 -3756 0
-3755 -3756 0
-3584 3757 -3727 -3735 3738 0
-3584 3757 -3727 3735 0
-3584 3757 3727 0
3584 -3757 -3727 -3735 3745 0
3584 -3757 -3727 3735 0
3584 -3757 3727 0
-3585 3758 -3727 -3733 3741 0
-3585 3758 -3727 3733 0
-3585 3758 3727 0
3585 -3758 -3727 -3733 3748 0
3585 -3758 -3727 3733 0
3585 -3758 3727 0
-3398 3759 -3727 3734 0
-3398 3759 3727 0
3398 -3759 -3727 3739 0
3398 -3759 3727 0
-3586 3760 -3727 -3735 3743 0
-3586 3760 -3727 3735 0
-3586 3760 3727 0
3586 -3760 -3727 -3735 3751 0
3586 -3760 -3727 3735 0
3586 -3760 3727 0
-3587 3761 -3727 -3732 3738 0
-3587 3761 -3727 3732 0
-3587 3761 3727 0
3587 -3761 -3727 -3732 3745 0
3587 -3761 -3727 3732 0
3587 -3761 3727 0
-3589 3762 -3727 -3734 3743 0
-3589 3762 -3727 3734 0
-3589 3762 3727 0
3589 -3762 -3727 -3734 3751 0
3589 -3762 -3727 3734 0
3589 -3762 3727 0
-3590 3763 -3727 3751 0
-3590 3763 3727 0
3590 -3763 0
-3591 3764 -3727 -3735 3740 0
-3591 3764 -3727 3735 0
-3591 3764 3727 0
3591 -3764 -3727 -3735 3747 0
3591 -3764 -3727 3735 0
3591 -3764 3727 0
-3404 3765 -3727 3735 0
-3404 3765 3727 0
3404 -3765 0
-3592 3766 -3727 -3736 3742 0
-3592 3766 -3727 3736 0
-3592 3766 3727 0
3592 -3766 -3727 -3736 3749 0
3592 -3766 -3727 3736 0
3592 -3766 3727 0
-3593 3767 -3727 3749 0
-3593 3767 3727 0
3593 -3767 -3727 3733 0
3593 -3767 3727 0
-3406 3768 -3727 3736 0
-3406 3768 3727 0
3406 -3768 -3727 3740 0
3406 -3768 3727 0
-3594 3769 -3727 -3736 3737 0
-3594 3769 -3727 3736 0
-3594 3769 3727 0
3594 -3769 -3727 -3736 3744 0
3594 -3769 -3727 3736 0
3594 -3769 3727 0
-3595 3770 -3727 3750 0
-3595 3770 3727 0
3595 -3770 -3727 3735 0
3595 -3770 3727 0
-3596 3771 -3727 -3736 3743 0
-3596 3771 -3727 3736 0
-3596 3771 3727 0
3596 -3771 -3727 -3736 3751 0
3596 -3771 -3727 3736 0
3596 -3771 3727 0
-3597 3772 -3727 -3735 3737 0
-3597 3772 -3727 3735 0
-3597 3772 3727 0
3597 -3772 -3727 -3735 3744 0
3597 -3772 -3727 3735 0
3597 -3772 3727 0
-3410 3773 0
3410 -3773 -3727 3738 0
3410 -3773 3727 0
-3599 3774 -3727 3748 0
-3599 3774 3727 0
3599 -3774 0
-3600 3775 -3727 -3734 3738 0
-3600 3775 -3727 3734 0
-3600 3775 3727 0
3600 -3775 -3727 -3734 3745 0
3600 -3775 -3727 3734 0
3600 -3775 3727 0
-3601 3776 -3727 -3732 3741 0
-3601 3776 -3727 3732 0
-3601 3776 3727 0
3601 -3776 -3727 -3732 3748 0
3601 -3776 -3727 3732 0
3601 -3776 3727 0
-3415 3777 0
3415 -3777 -3727 3741 0
3415 -3777 3727 0
-3603 3778 -3727 -3733 3743 0
-3603 3778 -3727 3733 0
-3603 3778 3727 0
3603 -3778 -3727 -3733 3751 0
3603 -3778 -3727 3733 0
3603 -3778 3727 0
-3604 3779 -3727 -3735 3742 0
-3604 3779 -3727 3735 0
-3604 3779 3727 0
3604 -3779 -3727 -3735 3749 0
3604 -3779 -3727 3735 0
3604 -3779 3727 0
-3418 3780 0
3418 -3780 -3727 3743 0
3418 -3780 3727 0
-3606 3781 -3727 3746 0
-3606 3781 3727 0
3606 -3781 -3727 3734 0
3606 -3781 3727 0
-3608 3782 -3727 3744 0
-3608 3782 3727 0
3608 -3782 -3727 3732 0
3608 -3782 3727 0
-3609 3783 -3727 -3734 3741 0
-3609 3783 -3727 3734 0
-3609 3783 3727 0
3609 -3783 -3727 -3734 3748 0
3609 -3783 -3727 3734 0
3609 -3783 3727 0
-3422 3784 -3727 3733 0
-3422 3784 3727 0
3422 -3784 -3727 3742 0
3422 -3784 3727 0
-3610 3785 -3727 -3735 3739 0
-3610 3785 -3727 3735 0
-3610 3785 3727 0
3610 -3785 -3727 -3735 3746 0
3610 -3785 -3727 3735 0
3610 -3785 3727 0
-3611 3786 -3727 -3733 3738 0
-3611 3786 -3727 3733 0
-3611 3786 3727 0
3611 -3786 -3727 -3733 3745 0
3611 -3786 -3727 3733 0
3611 -3786 3727 0
-3612 3787 -3727 -3736 3739 0
-3612 3787 -3727 3736 0
-3612 3787 3727 0
3612 -3787 -3727 -3736 3746 0
3612 -3787 -3727 3736 0
3612 -3787 3727 0
-3614 3788 -3727 -3735 3741 0
-3614 3788 -3727 3735 0
-3614 3788 3727 0
3614 -3788 -3727 -3735 3748 0
3614 -3788 -3727 3735 0
3614 -3788 3727 0
-3615 3789 -3727 3747 0
-3615 3789 3727 0
3615 -3789 -3727 3736 0
3615 -3789 3727 0
-3616 3790 -3727 -3736 3741 0
-3616 3790 -3727 3736 0
-3616 3790 3727 0
3616 -3790 -3727 -3736 3748 0
3616 -3790 -3727 3736 0
3616 -3790 3727 0
-3617 3791 -3727 -3736 3738 0
-3617 3791 -3727 3736 0
-3617 3791 3727 0
3617 -3791 -3727 -3736 3745 0
3617 -3791 -3727 3736 0
3617 -3791 3727 0
-3618 3792 -3727 -3732 3742 0
-3618 3792 -3727 3732 0
-3618 3792 3727 0
3618 -3792 -3727 -3732 3749 0
3618 -3792 -3727 3732 0
3618 -3792 3727 0
-3619 3793 -3727 3745 0
-3619 3793 3727 0
3619 -3793 0
-3431 3794 -3727 3732 0
-3431 3794 3727 0
3431 -3794 -3727 3737 0
3431 -3794 3727 0
-3620 3795 -3727 -3732 3743 0
-3620 3795 -3727 3732 0
-3620 3795 3727 0
3620 -3795 -3727 -3732 3751 0
3620 -3795 -3727 3732 0
3620 -3795 3727 0
-3621 3796 -3727 -3733 3739 0
-3621 3796 -3727 3733 0
-3621 3796 3727 0
3621 -3796 -3727 -3733 3746 0
3621 -3796 -3727 3733 0
3621 -3796 3727 0
-3622 3797 -3727 -3732 3739 0
-3622 3797 -3727 3732 0
-3622 3797 3727 0
3622 -3797 -3727 -3732 3746 0
3622 -3797 -3727 3732 0
3622 -3797 3727 0
-3753 3808 3809 3810 3811 3812 3813 3814 3815 0
-3808 -3809 0
-3808 -3810 0
-3808 -3811 0
-3808 -3812 0
-3808 -3813 0
-3808 -3814 0
-3808 -3815 0
-3809 -3810 0
-3809 -3811 0
-3809 -3812 0
-3809 -3813 0
-3809 -3814 0
-3809 -3815 0
-3810 -3811 0
-3810 -3812 0
-3810 -3813 0
-3810 -3814 0
-3810 -3815 0
-3811 -3812 0
-3811 -3813 0
-3811 -3814 0
-3811 -3815 0
-3812 -3813 0
-3812 -3814 0
-3812 -3815 0
-3813 -3814 0
-3813 -3815 0
-3814 -3815 0
-3753 3816 3817 3818 3819 3820 0
-3816 -3817 0
-3816 -3818 0
-3816 -3819 0
-3816 -3820 0
-3817 -3818 0
-3817 -3819 0
-3817 -3820 0
-3818 -3819 0
-3818 -3820 0
-3819 -3820 0
-3753 3806 0
-3753 3800 0
-3754 3588 0
-3754 3773 0
-3755 3816 3817 3818 3819 3820 0
-3816 -3817 0
-3816 -3818 0
-3816 -3819 0
-3816 -3820 0
-3817 -3818 0
-3817 -3819 0
-3817 -3820 0
-3818 -3819 0
-3818 -3820 0
-3819 -3820 0
-3755 3808 3809 3810 3811 3812 3813 3814 3815 0
-3808 -3809 0
-3808 -3810 0
-3808 -3811 0
-3808 -3812 0
-3808 -3813 0
-3808 -3814 0
-3808 -3815 0
-3809 -3810 0
-3809 -3811 0
-3809 -3812 0
-3809 -3813 0
-3809 -3814 0
-3809 -3815 0
-3810 -3811 0
-3810 -3812 0
-3810 -3813 0
-3810 -3814 0
-3810 -3815 0
-3811 -3812 0
-3811 -3813 0
-3811 -3814 0
-3811 -3815 0
-3812 -3813 0
-3812 -3814 0
-3812 -3815 0
-3813 -3814 0
-3813 -3815 0
-3814 -3815 0
-3755 3799 0
-3755 3804 0
-3752 -3753 0
-3752 -3754 0
-3752 -3755 0
-3753 -3754 0
-3753 -3755 0
-3754 -3755 0
-3738 -3798 3773 0
-3743 -3798 3780 0
-3739 -3798 3759 0
-3742 -3798 3784 0
-3740 -3798 3768 0
-3741 -3798 3777 0
-3737 -3798 3794 0
-3816 -3799 3794 0
-3819 -3799 3765 0
-3818 -3799 3759 0
-3817 -3799 3784 0
-3820 -3799 3768 0
-3809 -3800 3773 0
-3814 -3800 3765 0
-3815 -3800 3780 0
-3810 -3800 3759 0
-3813 -3800 3784 0
-3811 -3800 3768 0
-3812 -3800 3777 0
-3808 -3800 3794 0
-3735 -3737 3801 -3772 0
-3735 -3742 3801 -3779 0
-3735 -3738 3801 -3757 0
-3733 -3741 3801 -3758 0
-3735 -3743 3801 -3760 0
-3732 -3738 3801 -3761 0
-3734 -3738 3801 -3775 0
-3736 -3741 3801 -3790 0
-3734 -3743 3801 -3762 0
-3735 -3740 3801 -3764 0
-3734 -3741 3801 -3783 0
-3732 -3741 3801 -3776 0
-3736 -3742 3801 -3766 0
-3736 -3738 3801 -3791 0
-3732 -3742 3801 -3792 0
-3735 -3739 3801 -3785 0
-3733 -3738 3801 -3786 0
-3736 -3737 3801 -3769 0
-3736 -3739 3801 -3787 0
-3733 -3743 3801 -3778 0
-3736 -3743 3801 -3771 0
-3735 -3741 3801 -3788 0
-3732 -3743 3801 -3795 0
-3733 -3739 3801 -3796 0
-3732 -3739 3801 -3797 0
-3744 3802 -3782 0
-3749 3802 -3767 0
-3745 3802 -3793 0
-3750 3802 -3770 0
-3748 3802 -3774 0
-3747 3802 -3789 0
-3746 3802 -3781 0
-3751 3802 -3763 0
-3732 -3803 3782 0
-3735 -3803 3770 0
-3733 -3803 3767 0
-3736 -3803 3789 0
-3734 -3803 3781 0
-3812 -3804 3607 0
-3811 -3804 3582 0
-3813 -3804 3583 0
-3809 -3804 3602 0
-3808 -3804 3605 0
-3810 -3804 3598 0
-3814 -3804 3613 0
-3815 -3804 3588 0
-3732 3805 -3794 0
-3735 3805 -3765 0
-3734 3805 -3759 0
-3733 3805 -3784 0
-3736 3805 -3768 0
-3816 -3806 3605 0
-3820 -3806 3582 0
-3817 -3806 3583 0
-3818 -3806 3598 0
-3819 -3806 3613 0
-3735 -3744 -3807 3772 0
-3735 -3749 -3807 3779 0
-3735 -3745 -3807 3757 0
-3733 -3748 -3807 3758 0
-3735 -3751 -3807 3760 0
-3732 -3745 -3807 3761 0
-3734 -3745 -3807 3775 0
-3736 -3748 -3807 3790 0
-3734 -3751 -3807 3762 0
-3735 -3747 -3807 3764 0
-3734 -3748 -3807 3783 0
-3732 -3748 -3807 3776 0
-3736 -3749 -3807 3766 0
-3736 -3745 -3807 3791 0
-3732 -3749 -3807 3792 0
-3735 -3746 -3807 3785 0
-3733 -3745 -3807 3786 0
-3736 -3744 -3807 3769 0
-3736 -3746 -3807 3787 0
-3733 -3751 -3807 3778 0
-3736 -3751 -3807 3771 0
-3735 -3748 -3807 3788 0
-3732 -3751 -3807 3795 0
-3733 -3746 -3807 3796 0
-3732 -3746 -3807 3797 0
-3821 3737 -3744 0
-3821 -3737 3744 0
-3821 3738 -3745 0
-3821 -3738 3745 0
-3821 3739 -3746 0
-3821 -3739 3746 0
-3821 3740 -3747 0
-3821 -3740 3747 0
-3821 3741 -3748 0
-3821 -3741 3748 0
-3821 3742 -3749 0
-3821 -3742 3749 0
-3821 3743 -3751 0
-3821 -3743 3751 0
-3737 -3744 3821 0
-3738 -3745 3821 0
-3739 -3746 3821 0
-3740 -3747 3821 0
-3741 -3748 3821 0
-3742 -3749 3821 0
-3743 -3751 3821 0
-3750 -3821 0
-3727 -3801 3821 0
-3727 3803 0
-3727 3807 0
-3822 3732 -3737 0
-3822 -3732 3737 0
-3822 3733 -3742 0
-3822 -3733 3742 0
-3822 3734 -3739 0
-3822 -3734 3739 0
-3822 3736 -3740 0
-3822 -3736 3740 0
-3732 -3737 3822 0
-3733 -3742 3822 0
-3734 -3739 3822 0
-3736 -3740 3822 0
-3735 -3822 0
-3741 -3822 0
-3738 -3822 0
-3743 -3822 0
-3727 -3805 3822 0
-3727 3798 0
-3823 3744 -3732 0
-3823 -3744 3732 0
-3823 3749 -3733 0
-3823 -3749 3733 0
-3823 3746 -3734 0
-3823 -3746 3734 0
-3823 3750 -3735 0
-3823 -3750 3735 0
-3823 3747 -3736 0
-3823 -3747 3736 0
-3744 -3732 3823 0
-3749 -3733 3823 0
-3746 -3734 3823 0
-3750 -3735 3823 0
-3747 -3736 3823 0
-3748 -3823 0
-3745 -3823 0
-3751 -3823 0
-3824 3744 -3737 0
-3824 -3744 3737 0
-3824 3745 -3738 0
-3824 -3745 3738 0
-3824 3746 -3739 0
-3824 -3746 3739 0
-3824 3747 -3740 0
-3824 -3747 3740 0
-3824 3748 -3741 0
-3824 -3748 3741 0
-3824 3749 -3742 0
-3824 -3749 3742 0
-3824 3751 -3743 0
-3824 -3751 3743 0
-3744 -3737 3824 0
-3745 -3738 3824 0
-3746 -3739 3824 0
-3747 -3740 3824 0
-3748 -3741 3824 0
-3749 -3742 3824 0
-3751 -3743 3824 0
-3750 -3824 0
-3727 -3802 3823 0
-3753 -3817 -3814 0
-3753 -3817 -3808 0
-3753 -3817 -3813 0
-3753 -3817 -3811 0
-3753 -3819 -3814 0
-3753 -3818 -3814 0
-3753 -3818 -3808 0
-3753 -3818 -3813 0
-3753 -3818 -3811 0
-3753 -3818 -3810 0
-3753 -3820 -3814 0
-3753 -3820 -3811 0
-3753 -3816 -3814 0
-3753 -3816 -3808 0
-3753 -3816 -3811 0
-3755 -3817 -3814 0
-3755 -3817 -3808 0
-3755 -3817 -3813 0
-3755 -3817 -3811 0
-3755 -3819 -3814 0
-3755 -3818 -3814 0
-3755 -3818 -3808 0
-3755 -3818 -3813 0
-3755 -3818 -3811 0
-3755 -3818 -3810 0
-3755 -3820 -3814 0
-3755 -3820 -3811 0
-3755 -3816 -3814 0
-3755 -3816 -3808 0
-3755 -3816 -3811 0
-3580 3753 3754 3755 0
-3579 3752 0
-3753 3580 0
-3754 3580 0
-3755 3580 0
-3752 3579 0
-3582 151 -3756 0
3582 -151 -3756 0
-3583 152 -3756 0
3583 -152 -3756 0
-3757 154 -3756 0
3757 -154 -3756 0
-3758 155 -3756 0
3758 -155 -3756 0
-3759 385 -3756 0
3759 -385 -3756 0
-3760 156 -3756 0
3760 -156 -3756 0
-3761 158 -3756 0
3761 -158 -3756 0
-3588 159 -3756 0
3588 -159 -3756 0
-3762 160 -3756 0
3762 -160 -3756 0
-3763 602 -3756 0
3763 -602 -3756 0
-3764 10 -3756 0
3764 -10 -3756 0
-3765 162 -3756 0
3765 -162 -3756 0
-3766 163 -3756 0
3766 -163 -3756 0
-3767 270 -3756 0
3767 -270 -3756 0
-3768 386 -3756 0
3768 -386 -3756 0
-3769 11 -3756 0
3769 -11 -3756 0
-3770 271 -3756 0
3770 -271 -3756 0
-3771 167 -3756 0
3771 -167 -3756 0
-3772 170 -3756 0
3772 -170 -3756 0
-3773 171 -3756 0
3773 -171 -3756 0
-3598 172 -3756 0
3598 -172 -3756 0
-3774 273 -3756 0
3774 -273 -3756 0
-3775 12 -3756 0
3775 -12 -3756 0
-3776 174 -3756 0
3776 -174 -3756 0
-3602 274 -3756 0
3602 -274 -3756 0
-3777 387 -3756 0
3777 -387 -3756 0
-3778 176 -3756 0
3778 -176 -3756 0
-3779 153 -3756 0
3779 -153 -3756 0
-3780 388 -3756 0
3780 -388 -3756 0
-3605 157 -3756 0
3605 -157 -3756 0
-3781 267 -3756 0
3781 -267 -3756 0
-3607 268 -3756 0
3607 -268 -3756 0
-3782 269 -3756 0
3782 -269 -3756 0
-3783 161 -3756 0
3783 -161 -3756 0
-3784 389 -3756 0
3784 -389 -3756 0
-3785 164 -3756 0
3785 -164 -3756 0
-3786 165 -3756 0
3786 -165 -3756 0
-3787 166 -3756 0
3787 -166 -3756 0
-3613 168 -3756 0
3613 -168 -3756 0
-3788 169 -3756 0
3788 -169 -3756 0
-3789 272 -3756 0
3789 -272 -3756 0
-3790 173 -3756 0
3790 -173 -3756 0
-3791 175 -3756 0
3791 -175 -3756 0
-3792 13 -3756 0
3792 -13 -3756 0
-3793 603 -3756 0
3793 -603 -3756 0
-3794 390 -3756 0
3794 -390 -3756 0
-3795 177 -3756 0
3795 -177 -3756 0
-3796 14 -3756 0
3796 -14 -3756 0
-3797 178 -3756 0
3797 -178 -3756 0
-3635 3825 0
-3825 3635 0
a 3756 0
